37904 34622
58877 60049
49791 38710
58847 57004
38753 24367
60819 15563
12617 29722
37670 37657
53665 1874
56418 14984
3843 54320
37718 37855
28782 60430
27839 2427
27739 24974
6177 23011
231 64742
24296 24069
35801 59765
8362 62143
48393 1585
25574 23419
4373 1146
26655 25156
7049 23648
39498 19829
65385 11637
54630 2877
35638 7626
60515 16666
53455 40019
33422 41918
63274 41399
39642 51884
34476 16736
49247 46810
16561 34729
47144 13991
18690 46097
56789 26395
